Academic license - for non-commercial use only - expires 2022-11-10
Using license file /home/benedond/Apps/gurobi/gurobi950/gurobi.lic
Using gurobi.env file
Set parameter Threads to value 1
Changed value of parameter TimeLimit to 300.0
   Prev: inf  Min: 0.0  Max: inf  Default: inf
Gurobi Optimizer version 9.1.2 build v9.1.2rc0 (linux64)
Thread count: 2 physical cores, 4 logical processors, using up to 1 threads
Optimize a model with 1007 rows, 906 columns and 4302 nonzeros
Model fingerprint: 0x1a5d0dbd
Variable types: 40 continuous, 866 integer (866 binary)
Coefficient statistics:
  Matrix range     [5e-02, 4e+02]
  Objective range  [3e-02, 7e-01]
  Bounds range     [1e+00, 1e+00]
  RHS range        [1e+00, 6e+02]
Found heuristic solution: objective 3.8537955
Presolve removed 138 rows and 50 columns
Presolve time: 0.03s
Presolved: 869 rows, 856 columns, 3991 nonzeros
Variable types: 39 continuous, 817 integer (817 binary)

Root relaxation: objective 2.785170e+00, 583 iterations, 0.01 seconds

    Nodes    |    Current Node    |     Objective Bounds      |     Work
 Expl Unexpl |  Obj  Depth IntInf | Incumbent    BestBd   Gap | It/Node Time

     0     0    2.78517    0   64    3.85380    2.78517  27.7%     -    0s
H    0     0                       3.1390776    2.78517  11.3%     -    0s
H    0     0                       3.1115746    2.78517  10.5%     -    0s
H    0     0                       3.0890554    2.78517  9.84%     -    0s
     0     0    2.86364    0   55    3.08906    2.86364  7.30%     -    0s
H    0     0                       3.0456496    2.86364  5.98%     -    0s
H    0     0                       3.0376354    2.86364  5.73%     -    0s
     0     0    2.86998    0   46    3.03764    2.86998  5.52%     -    0s
     0     0    2.87850    0   47    3.03764    2.87850  5.24%     -    0s
     0     0    2.89114    0   55    3.03764    2.89114  4.82%     -    0s
     0     0    2.90787    0   57    3.03764    2.90787  4.27%     -    0s
     0     0    2.92616    0   56    3.03764    2.92616  3.67%     -    0s
     0     0    2.92900    0   52    3.03764    2.92900  3.58%     -    0s
     0     0    2.92900    0   66    3.03764    2.92900  3.58%     -    0s
     0     0    2.92900    0   58    3.03764    2.92900  3.58%     -    0s
     0     0    2.92901    0   55    3.03764    2.92901  3.58%     -    0s
     0     0    2.93043    0   60    3.03764    2.93043  3.53%     -    0s
H    0     0                       3.0334384    2.93043  3.40%     -    0s
     0     0    2.93169    0   53    3.03344    2.93169  3.35%     -    0s
     0     0    2.93340    0   58    3.03344    2.93340  3.30%     -    0s
     0     0    2.93462    0   53    3.03344    2.93462  3.26%     -    0s
     0     0    2.93565    0   71    3.03344    2.93565  3.22%     -    0s
     0     0    2.93601    0   68    3.03344    2.93601  3.21%     -    0s
     0     0    2.93648    0   77    3.03344    2.93648  3.20%     -    0s
     0     0    2.93804    0   72    3.03344    2.93804  3.14%     -    0s
     0     0    2.93885    0   85    3.03344    2.93885  3.12%     -    0s
     0     0    2.94009    0   76    3.03344    2.94009  3.08%     -    0s
     0     0    2.94071    0   75    3.03344    2.94071  3.06%     -    0s
H    0     0                       3.0198833    2.94071  2.62%     -    0s
     0     0    2.94101    0   76    3.01988    2.94101  2.61%     -    0s
     0     0    2.94214    0   77    3.01988    2.94214  2.57%     -    0s
     0     0    2.94245    0   71    3.01988    2.94245  2.56%     -    0s
     0     0    2.94346    0   88    3.01988    2.94346  2.53%     -    0s
H    0     0                       2.9992457    2.94346  1.86%     -    0s
     0     0    2.94355    0   88    2.99925    2.94355  1.86%     -    0s
     0     0    2.94422    0   85    2.99925    2.94422  1.83%     -    0s
     0     0    2.94422    0   61    2.99925    2.94422  1.83%     -    0s
     0     0    2.94422    0   60    2.99925    2.94422  1.83%     -    0s
     0     0    2.94422    0   63    2.99925    2.94422  1.83%     -    0s
     0     0    2.94422    0   76    2.99925    2.94422  1.83%     -    0s
     0     0    2.94422    0   71    2.99925    2.94422  1.83%     -    0s
     0     0    2.94422    0   91    2.99925    2.94422  1.83%     -    0s
     0     0    2.94422    0   79    2.99925    2.94422  1.83%     -    0s
     0     0    2.94422    0   77    2.99925    2.94422  1.83%     -    0s
     0     0    2.94537    0   81    2.99925    2.94537  1.80%     -    0s
     0     0    2.94594    0   79    2.99925    2.94594  1.78%     -    0s
     0     0    2.94616    0   70    2.99925    2.94616  1.77%     -    0s
     0     0    2.94643    0   85    2.99925    2.94643  1.76%     -    0s
H    0     0                       2.9919309    2.94643  1.52%     -    0s
     0     0    2.94647    0   65    2.99193    2.94647  1.52%     -    0s
     0     0    2.94661    0   76    2.99193    2.94661  1.51%     -    0s
H    0     0                       2.9837616    2.94661  1.24%     -    0s
     0     0    2.94662    0   72    2.98376    2.94662  1.24%     -    0s
     0     0    2.94663    0   84    2.98376    2.94663  1.24%     -    0s
     0     0    2.94663    0   56    2.98376    2.94663  1.24%     -    0s
     0     0    2.94663    0   55    2.98376    2.94663  1.24%     -    0s
     0     0    2.94663    0   66    2.98376    2.94663  1.24%     -    0s
     0     0    2.94663    0   66    2.98376    2.94663  1.24%     -    0s
     0     0    2.94663    0   60    2.98376    2.94663  1.24%     -    0s
     0     0    2.94663    0   76    2.98376    2.94663  1.24%     -    0s
     0     0    2.94663    0   58    2.98376    2.94663  1.24%     -    0s
     0     0    2.94663    0   69    2.98376    2.94663  1.24%     -    0s
     0     0    2.94677    0   69    2.98376    2.94677  1.24%     -    0s
     0     0    2.94680    0   80    2.98376    2.94680  1.24%     -    0s
     0     0    2.94680    0   80    2.98376    2.94680  1.24%     -    0s
     0     2    2.94785    0   80    2.98376    2.94785  1.20%     -    0s
H    8     8                       2.9824427    2.94875  1.13%  30.0    0s
H  505   233                       2.9821900    2.95663  0.86%  27.1    1s
H  505   195                       2.9773918    2.95663  0.70%  27.1    1s
H  517   149                       2.9717955    2.95663  0.51%  26.8    1s
H  527   152                       2.9711055    2.95663  0.49%  26.6    1s
* 1155   110              19       2.9688237    2.96413  0.16%  24.1    1s

Cutting planes:
  Gomory: 4
  Cover: 25
  Implied bound: 7
  Clique: 1
  MIR: 63
  StrongCG: 4
  GUB cover: 1
  Inf proof: 1
  Mod-K: 2
  RLT: 2
  Relax-and-lift: 60

Explored 1309 nodes (37322 simplex iterations) in 2.09 seconds
Thread count was 1 (of 4 available processors)

Solution count 10: 2.96882 2.97111 2.9718 ... 3.01988

Optimal solution found (tolerance 1.00e-04)
Best objective 2.968823709772e+00, best bound 2.968552663648e+00, gap 0.0091%
